(set-info :source |printed by MathSAT|)
(declare-fun a_1 () (Array Int Int))
(declare-fun .y.8 () (Array Int Int))
(declare-fun i_0 () Int)
(declare-fun .y.9 () Int)
(declare-fun val1_0 () Int)
(declare-fun .y.10 () Int)
(declare-fun val2_0 () Int)
(declare-fun .y.11 () Int)
(declare-fun N_1 () Int)
(declare-fun .y.12 () Int)
(declare-fun .loc.7 () Bool)
(declare-fun .loc.13 () Bool)
(declare-fun i1_0 () Int)
(define-fun .def_8 () (Array Int Int) (! a_1 :next |.y.8|))
(define-fun .def_10 () Int (! i_0 :next |.y.9|))
(define-fun .def_12 () Int (! val1_0 :next |.y.10|))
(define-fun .def_14 () Int (! val2_0 :next |.y.11|))
(define-fun .def_16 () Int (! N_1 :next |.y.12|))
(define-fun .def_18 () Bool (! .loc.7 :next |.loc.13|))
(define-fun .def_45 () Int (! i1_0 :next |.xtv.1|))
(define-fun .def_68 () Bool (= .def_14 13))
(define-fun .def_65 () Bool (= .def_12 7))
(define-fun .def_63 () Bool (= .def_10 0))
(define-fun .def_66 () Bool (and .def_63 .def_65))
(define-fun .def_69 () Bool (and .def_66 .def_68))
(define-fun .def_61 () Bool (! (not .def_18) :invar-property 0))
(define-fun .def_70 () Bool (! (and .def_61 .def_69) :init true))
(define-fun .def_51 () Int (select .def_8 .def_45))
(define-fun .def_54 () Bool (= .def_14 .def_51))
(define-fun .def_55 () Bool (not .def_54))
(define-fun .def_52 () Bool (= .def_12 .def_51))
(define-fun .def_53 () Bool (not .def_52))
(define-fun .def_56 () Bool (and .def_53 .def_55))
(define-fun .def_57 () Bool (not .def_56))
(define-fun .def_49 () Bool (<= .def_45 .def_16))
(define-fun .def_21 () Bool (<= .def_10 .def_16))
(define-fun .def_47 () Bool (not .def_21))
(define-fun .def_46 () Bool (<= 0 .def_45))
(define-fun .def_48 () Bool (and .def_46 .def_47))
(define-fun .def_50 () Bool (and .def_48 .def_49))
(define-fun .def_58 () Bool (and .def_50 .def_57))
(define-fun .def_59 () Bool (and .loc.13 .def_58))
(define-fun .def_41 () Int (* (- 1) .y.9))
(define-fun .def_42 () Int (+ .def_10 .def_41))
(define-fun .def_43 () Bool (= .def_42 (- 1)))
(define-fun .def_29 () (Array Int Int) (store .def_8 .def_10 .def_10))
(define-fun .def_31 () (Array Int Int) (store .def_8 .def_10 10))
(define-fun .def_32 () Bool (= .def_10 .def_14))
(define-fun .def_33 () (Array Int Int) (ite .def_32 .def_31 .def_29))
(define-fun .def_35 () (Array Int Int) (store .def_8 .def_10 0))
(define-fun .def_36 () Bool (= .def_10 .def_12))
(define-fun .def_37 () (Array Int Int) (ite .def_36 .def_35 .def_33))
(define-fun .def_38 () Bool (= .y.8 .def_37))
(define-fun .def_27 () Bool (= .def_12 .y.10))
(define-fun .def_25 () Bool (= .def_14 .y.11))
(define-fun .def_23 () Bool (= .def_16 .y.12))
(define-fun .def_20 () Bool (not .loc.13))
(define-fun .def_22 () Bool (and .def_20 .def_21))
(define-fun .def_24 () Bool (and .def_22 .def_23))
(define-fun .def_26 () Bool (and .def_24 .def_25))
(define-fun .def_28 () Bool (and .def_26 .def_27))
(define-fun .def_39 () Bool (and .def_28 .def_38))
(define-fun .def_44 () Bool (and .def_39 .def_43))
(define-fun .def_60 () Bool (or .def_44 .def_59))
(define-fun .def_62 () Bool (! (and .def_60 .def_61) :trans true))
(assert true)
